3 
4  50 
5  03 27 43 58 
6  12 27 44 59 
7  14 29 44 59 
8  14 29 44 59 
9  14 29 46 
10  01 16 31 46 
11  01 16 31 46 
12  01 16 31 46 
13  01 16 31 46 
14  01 16 31 45 59 
15  14 29 44 59 
16  14 29 44 59 
17  14 29 44 59 
18  14 29 45 
19  00 15 30 45 
20  00 15 30 45 
21  00 15 45 
22  
23  
0 
